32	0

0	1	2
3	1	3
5	1	4
3	1	5
1	2	6	7
8	1	8
8	1	8
10	2	9	10
4	1	11
8	1	11
4	1	12
10	1	13
2	1	14
3	1	15
2	2	16	17
1	1	18
2	1	18
4	1	19
3	1	20
5	1	21
2	1	22
8	1	23
8	1	24
3	2	25	26
9	1	27
10	1	27
2	2	28	29
10	1	30
3	1	30
5	1	31
10	1	32
0	0
